NAME : X_18_seed_123_id_10
TYPE : CVRP
DIMENSION : 181
EDGE_WEIGHT_TYPE : EUC_2D
CAPACITY : 8
NODE_COORD_SECTION
1	29	290
2	441	65
3	295	795
4	531	332
5	554	319
6	783	676
7	718	66
8	572	309
9	523	302
10	473	98
11	811	675
12	869	1
13	237	918
14	562	291
15	489	251
16	773	645
17	512	329
18	324	800
19	572	314
20	449	696
21	564	322
22	258	708
23	683	373
24	505	256
25	414	103
26	318	817
27	507	294
28	953	712
29	515	75
30	531	384
31	754	730
32	291	779
33	710	735
34	741	604
35	659	63
36	509	184
37	467	35
38	406	42
39	415	338
40	521	411
41	403	72
42	430	760
43	540	347
44	289	845
45	463	293
46	343	186
47	638	32
48	569	364
49	616	355
50	712	76
51	767	660
52	468	743
53	506	385
54	463	73
55	515	293
56	682	693
57	769	676
58	709	431
59	292	900
60	598	286
61	482	221
62	529	380
63	471	121
64	770	12
65	846	587
66	344	0
67	534	293
68	493	300
69	569	317
70	211	853
71	316	802
72	477	531
73	666	285
74	516	83
75	496	351
76	293	738
77	195	738
78	498	26
79	712	61
80	546	90
81	525	321
82	664	368
83	517	377
84	649	650
85	587	353
86	867	680
87	828	686
88	626	23
89	561	338
90	790	645
91	567	335
92	368	139
93	709	773
94	849	749
95	282	828
96	759	227
97	745	621
98	755	733
99	669	637
100	515	201
101	224	759
102	634	114
103	511	433
104	392	46
105	546	345
106	639	337
107	575	329
108	846	151
109	558	277
110	660	8
111	707	75
112	747	105
113	640	330
114	625	31
115	655	157
116	467	77
117	351	11
118	467	383
119	731	121
120	488	50
121	854	661
122	654	68
123	828	632
124	518	344
125	542	346
126	591	65
127	259	838
128	622	323
129	754	657
130	305	779
131	521	360
132	557	381
133	585	370
134	556	351
135	526	314
136	671	57
137	617	267
138	532	83
139	706	69
140	530	321
141	439	137
142	747	675
143	340	825
144	579	267
145	531	329
146	386	15
147	774	664
148	377	813
149	411	327
150	866	650
151	457	168
152	750	75
153	799	687
154	427	112
155	838	675
156	720	722
157	559	306
158	288	820
159	861	703
160	610	143
161	523	389
162	546	55
163	275	835
164	849	744
165	586	387
166	501	127
167	475	275
168	563	417
169	933	601
170	247	371
171	301	789
172	297	64
173	802	592
174	255	704
175	487	309
176	280	780
177	257	769
178	578	330
179	427	118
180	569	286
181	803	633
DEMAND_SECTION
1	0
2	1
3	1
4	1
5	1
6	1
7	1
8	1
9	1
10	1
11	1
12	1
13	1
14	1
15	1
16	1
17	1
18	1
19	1
20	1
21	1
22	1
23	1
24	1
25	1
26	1
27	1
28	1
29	1
30	1
31	1
32	1
33	1
34	1
35	1
36	1
37	1
38	1
39	1
40	1
41	1
42	1
43	1
44	1
45	1
46	1
47	1
48	1
49	1
50	1
51	1
52	1
53	1
54	1
55	1
56	1
57	1
58	1
59	1
60	1
61	1
62	1
63	1
64	1
65	1
66	1
67	1
68	1
69	1
70	1
71	1
72	1
73	1
74	1
75	1
76	1
77	1
78	1
79	1
80	1
81	1
82	1
83	1
84	1
85	1
86	1
87	1
88	1
89	1
90	1
91	1
92	1
93	1
94	1
95	1
96	1
97	1
98	1
99	1
100	1
101	1
102	1
103	1
104	1
105	1
106	1
107	1
108	1
109	1
110	1
111	1
112	1
113	1
114	1
115	1
116	1
117	1
118	1
119	1
120	1
121	1
122	1
123	1
124	1
125	1
126	1
127	1
128	1
129	1
130	1
131	1
132	1
133	1
134	1
135	1
136	1
137	1
138	1
139	1
140	1
141	1
142	1
143	1
144	1
145	1
146	1
147	1
148	1
149	1
150	1
151	1
152	1
153	1
154	1
155	1
156	1
157	1
158	1
159	1
160	1
161	1
162	1
163	1
164	1
165	1
166	1
167	1
168	1
169	1
170	1
171	1
172	1
173	1
174	1
175	1
176	1
177	1
178	1
179	1
180	1
181	1
DEPOT_SECTION
1
-1
EOF
